p edge 107 584
e 1 17
e 1 18
e 1 21
e 1 24
e 1 27
e 1 33
e 1 39
e 1 84
e 1 85
e 1 106
e 2 23
e 2 29
e 2 31
e 2 41
e 2 54
e 2 57
e 2 58
e 2 61
e 2 62
e 2 73
e 2 75
e 2 76
e 2 80
e 2 83
e 2 97
e 3 26
e 3 30
e 3 38
e 3 42
e 3 57
e 3 58
e 3 69
e 3 93
e 3 97
e 4 17
e 4 21
e 4 25
e 4 32
e 4 63
e 4 82
e 4 86
e 4 87
e 4 88
e 4 97
e 4 99
e 4 105
e 5 47
e 5 52
e 5 72
e 5 75
e 5 77
e 5 90
e 5 92
e 5 102
e 6 7
e 6 8
e 6 12
e 6 18
e 6 20
e 6 34
e 6 36
e 6 47
e 6 81
e 6 100
e 7 25
e 7 39
e 7 52
e 7 80
e 7 84
e 7 93
e 7 95
e 7 102
e 8 15
e 8 20
e 8 56
e 8 57
e 8 58
e 8 59
e 8 69
e 8 78
e 8 88
e 8 93
e 8 103
e 8 107
e 9 13
e 9 25
e 9 27
e 9 36
e 9 39
e 9 53
e 9 65
e 9 67
e 9 84
e 9 85
e 9 94
e 9 98
e 10 11
e 10 21
e 10 33
e 10 37
e 10 58
e 10 69
e 10 70
e 10 84
e 10 91
e 10 94
e 11 14
e 11 34
e 11 45
e 11 61
e 11 63
e 11 67
e 11 85
e 11 88
e 11 92
e 12 45
e 12 57
e 12 59
e 12 60
e 12 99
e 13 27
e 13 32
e 13 43
e 13 50
e 13 56
e 13 60
e 13 61
e 13 65
e 13 72
e 13 73
e 13 78
e 13 83
e 13 102
e 14 15
e 14 16
e 14 20
e 14 23
e 14 30
e 14 31
e 14 35
e 14 38
e 14 46
e 14 55
e 14 74
e 14 84
e 14 106
e 15 26
e 15 45
e 15 48
e 15 57
e 15 58
e 15 60
e 15 75
e 15 76
e 15 83
e 15 87
e 15 97
e 15 98
e 15 100
e 15 106
e 15 107
e 16 20
e 16 25
e 16 37
e 16 43
e 16 54
e 16 73
e 16 78
e 16 86
e 16 92
e 16 95
e 16 106
e 17 55
e 17 72
e 17 85
e 17 86
e 17 93
e 17 94
e 17 98
e 18 20
e 18 26
e 18 77
e 18 79
e 18 83
e 18 93
e 18 95
e 18 100
e 18 101
e 18 102
e 18 107
e 19 22
e 19 36
e 19 56
e 19 77
e 19 92
e 19 101
e 19 103
e 20 23
e 20 29
e 20 58
e 20 71
e 20 76
e 20 89
e 20 97
e 20 99
e 20 100
e 20 102
e 21 27
e 21 30
e 21 40
e 21 77
e 21 83
e 21 102
e 22 29
e 22 40
e 22 41
e 22 43
e 22 65
e 22 68
e 22 71
e 22 79
e 23 28
e 23 29
e 23 31
e 23 34
e 23 44
e 23 47
e 23 57
e 23 73
e 23 90
e 23 92
e 23 94
e 24 41
e 24 55
e 24 65
e 24 67
e 24 101
e 24 104
e 25 29
e 25 30
e 25 33
e 25 58
e 25 72
e 25 73
e 25 79
e 25 90
e 25 95
e 26 31
e 26 62
e 26 99
e 27 62
e 27 76
e 27 83
e 27 88
e 27 91
e 27 92
e 27 100
e 27 103
e 27 105
e 28 39
e 28 68
e 28 70
e 28 75
e 28 81
e 28 85
e 28 87
e 28 93
e 29 31
e 29 40
e 29 53
e 29 62
e 29 65
e 29 77
e 29 80
e 29 86
e 29 92
e 29 96
e 29 97
e 29 99
e 30 31
e 30 37
e 30 54
e 30 59
e 30 64
e 30 76
e 30 87
e 31 38
e 31 39
e 31 40
e 31 45
e 31 54
e 31 81
e 31 83
e 32 37
e 32 46
e 32 49
e 32 51
e 32 76
e 32 93
e 33 43
e 33 44
e 33 49
e 33 54
e 33 56
e 33 68
e 33 72
e 33 90
e 33 102
e 34 56
e 34 61
e 34 76
e 34 85
e 34 86
e 34 93
e 34 97
e 35 68
e 35 71
e 35 73
e 35 74
e 35 75
e 35 78
e 35 92
e 35 96
e 35 97
e 35 100
e 35 104
e 35 105
e 35 107
e 36 49
e 36 64
e 36 68
e 36 88
e 36 91
e 36 102
e 37 38
e 37 44
e 37 45
e 37 49
e 37 54
e 37 55
e 37 57
e 37 74
e 37 80
e 37 104
e 38 54
e 38 56
e 38 59
e 38 61
e 38 77
e 38 89
e 38 94
e 39 42
e 39 51
e 39 57
e 39 86
e 39 87
e 40 56
e 40 65
e 40 68
e 40 72
e 40 79
e 40 89
e 41 42
e 41 43
e 41 49
e 41 56
e 41 60
e 41 73
e 41 78
e 41 81
e 41 86
e 41 90
e 41 93
e 41 97
e 41 104
e 42 44
e 42 50
e 42 56
e 42 67
e 42 69
e 42 100
e 42 104
e 43 49
e 43 69
e 43 77
e 43 81
e 43 87
e 43 89
e 43 91
e 43 100
e 43 104
e 44 47
e 44 51
e 44 66
e 44 81
e 44 97
e 44 107
e 45 72
e 45 86
e 45 97
e 46 66
e 46 67
e 46 72
e 46 73
e 46 76
e 46 78
e 46 96
e 47 51
e 47 69
e 47 75
e 47 89
e 47 92
e 48 57
e 48 68
e 48 72
e 48 76
e 50 57
e 50 61
e 50 98
e 51 53
e 51 57
e 51 93
e 52 53
e 52 84
e 52 88
e 53 64
e 53 81
e 53 86
e 53 100
e 54 56
e 54 60
e 54 64
e 54 66
e 54 78
e 54 81
e 54 93
e 55 61
e 55 71
e 55 85
e 55 92
e 55 98
e 55 100
e 55 102
e 56 58
e 56 66
e 56 99
e 57 98
e 58 67
e 58 79
e 58 85
e 58 87
e 58 88
e 58 90
e 59 61
e 59 71
e 59 78
e 59 79
e 59 81
e 60 62
e 60 100
e 60 102
e 60 105
e 61 62
e 61 63
e 61 69
e 61 89
e 61 92
e 61 95
e 61 107
e 62 68
e 62 72
e 62 77
e 62 81
e 62 89
e 62 107
e 63 66
e 63 69
e 63 72
e 63 76
e 63 78
e 63 85
e 64 73
e 64 79
e 64 92
e 64 99
e 64 107
e 65 83
e 65 89
e 65 94
e 65 103
e 65 107
e 66 69
e 66 72
e 66 74
e 66 76
e 66 80
e 66 87
e 66 104
e 66 107
e 67 82
e 67 83
e 67 88
e 67 98
e 67 99
e 68 76
e 68 84
e 68 91
e 68 92
e 69 72
e 69 81
e 69 95
e 69 102
e 69 107
e 70 72
e 70 73
e 70 90
e 70 99
e 70 100
e 71 83
e 71 90
e 71 94
e 72 73
e 72 85
e 72 92
e 72 93
e 72 103
e 72 107
e 73 82
e 73 91
e 73 97
e 73 98
e 73 107
e 74 75
e 74 89
e 74 97
e 74 101
e 74 106
e 75 78
e 75 79
e 75 87
e 75 89
e 75 94
e 76 90
e 76 104
e 77 88
e 77 99
e 78 79
e 78 89
e 78 101
e 78 103
e 79 102
e 80 81
e 80 89
e 80 92
e 80 103
e 81 95
e 82 83
e 82 89
e 82 92
e 83 91
e 83 105
e 84 90
e 84 97
e 85 87
e 85 94
e 87 89
e 87 104
e 87 106
e 88 90
e 88 93
e 88 103
e 90 103
e 90 104
e 91 106
e 93 94
e 93 98
e 94 102
e 95 104
e 96 99
e 96 107
e 97 104
e 98 101
e 98 106
e 99 102
